NAME: instance_1299
TYPE: TSP
DIMENSION: 20
EDGE_WEIGHT_TYPE: EUC_2D
NODE_COORD_SECTION
0 49.08 88.64
1 13.92 47.17
2 16.74 64.40
3 72.23 6.05
4 11.14 17.70
5 54.90 91.70
6 71.80 30.36
7 96.26 86.83
8 21.41 15.51
9 55.52 12.32
10 88.96 8.91
11 88.85 27.60
12 17.53 88.63
13 26.04 7.49
14 30.72 36.46
15 0.66 0.53
16 87.00 67.00
17 52.43 86.68
18 80.97 10.15
19 39.72 25.05
EOF
